3 100 1260
6 5 8 6 7 8 6 3 6 7
3 3 4
1 6 2
3 4 8
8 1 9 6
0 40.0 50.0 0.0 0.0 0 1236
2 45.0 68.0 90.0 10.0 890 989 39 0 0 1 0 0 0 0 0 0 0
3 45.0 70.0 90.0 30.0 816 879 2 0 0 0 1 0 1 0 0 1 1
4 42.0 66.0 90.0 10.0 55 156 84 1 0 0 0 0 0 0 0 0 0
5 42.0 68.0 90.0 10.0 703 806 30 0 1 1 0 0 0 0 0 0 0
6 42.0 65.0 90.0 10.0 15 60 22 0 0 0 0 0 1 0 0 0 0
7 40.0 69.0 90.0 20.0 559 764 32 0 0 0 1 0 0 0 0 1 0
8 40.0 66.0 90.0 20.0 172 223 15 0 0 0 0 0 0 0 0 1 0
9 38.0 68.0 90.0 20.0 250 329 17 1 0 0 0 0 0 1 0 0 1
10 38.0 70.0 90.0 10.0 489 650 99 0 0 1 0 0 0 1 0 0 0
11 35.0 66.0 90.0 10.0 361 406 20 1 0 0 0 0 0 0 0 0 0
12 35.0 69.0 90.0 10.0 450 503 93 0 0 0 0 0 0 0 1 0 1
13 25.0 85.0 90.0 20.0 647 726 60 0 0 0 0 0 1 0 0 0 0
14 22.0 75.0 90.0 30.0 30 95 23 0 0 0 0 0 0 1 0 1 0
15 22.0 85.0 90.0 10.0 571 616 38 0 0 0 1 0 0 0 0 1 0
16 20.0 80.0 90.0 40.0 392 421 25 1 0 0 0 0 0 0 1 0 0
17 20.0 85.0 90.0 40.0 478 525 35 0 0 0 0 0 1 1 0 0 0
18 18.0 75.0 90.0 20.0 105 142 57 1 1 0 0 0 0 1 0 0 0
19 15.0 75.0 90.0 20.0 172 261 37 0 0 0 0 0 0 0 0 1 0
20 15.0 80.0 90.0 10.0 274 349 79 1 0 0 0 1 0 1 1 0 1
21 30.0 50.0 90.0 10.0 10 77 98 0 0 0 1 0 0 0 0 0 0
22 30.0 52.0 90.0 20.0 918 961 45 0 0 0 0 0 1 0 0 0 0
23 28.0 52.0 90.0 20.0 806 889 8 0 0 1 0 0 0 0 0 0 0
24 28.0 55.0 90.0 10.0 739 770 61 0 0 1 0 0 0 0 0 0 0
25 25.0 50.0 90.0 10.0 55 154 43 0 0 0 0 1 1 0 0 1 0
26 25.0 52.0 90.0 40.0 172 221 22 0 0 0 0 0 0 0 0 1 1
27 25.0 55.0 90.0 10.0 612 711 57 0 0 0 0 0 1 0 0 0 0
28 23.0 52.0 90.0 10.0 264 313 27 0 0 0 1 0 1 0 0 0 0
29 23.0 55.0 90.0 20.0 553 586 18 0 1 0 0 0 0 0 1 1 1
30 20.0 50.0 90.0 10.0 365 398 52 0 1 1 0 0 0 0 0 0 0
31 20.0 55.0 90.0 10.0 452 501 17 0 0 0 0 1 1 1 1 0 0
32 10.0 35.0 90.0 20.0 204 233 29 0 0 0 0 1 0 0 0 0 1
33 10.0 40.0 90.0 30.0 31 189 29 0 0 0 0 0 1 0 0 0 0
34 8.0 40.0 90.0 40.0 42 203 18 0 0 0 0 0 1 0 0 0 0
35 8.0 45.0 90.0 20.0 715 852 41 0 1 0 0 1 0 0 0 0 0
36 5.0 35.0 90.0 10.0 251 376 30 0 0 0 0 0 1 0 0 0 0
37 5.0 45.0 90.0 10.0 648 733 99 0 0 0 0 0 1 0 0 0 0
38 2.0 40.0 90.0 20.0 365 452 51 0 0 0 0 0 1 0 0 0 0
39 0.0 40.0 90.0 30.0 474 527 89 0 0 0 0 0 0 1 0 0 1
40 0.0 45.0 90.0 20.0 541 650 42 1 0 0 1 0 0 0 1 0 1
41 35.0 30.0 90.0 10.0 240 345 89 0 0 0 0 0 0 1 0 0 0
42 35.0 32.0 90.0 10.0 123 278 98 1 0 0 0 1 0 0 0 0 1
43 33.0 32.0 90.0 20.0 19 225 51 0 0 1 0 0 0 0 1 0 0
44 33.0 35.0 90.0 10.0 16 153 32 0 0 0 0 1 0 0 0 0 0
45 32.0 30.0 90.0 10.0 338 433 37 0 0 0 1 0 0 0 0 1 1
46 30.0 30.0 90.0 10.0 513 628 60 0 0 0 0 0 0 0 1 1 1
47 30.0 32.0 90.0 30.0 415 542 27 1 0 1 1 1 0 0 0 0 0
48 30.0 35.0 90.0 10.0 872 1127 88 0 0 0 0 0 0 0 0 1 0
49 28.0 30.0 90.0 10.0 599 726 87 0 1 0 0 1 0 0 1 0 0
50 28.0 35.0 90.0 10.0 917 1126 4 1 0 1 1 1 0 0 0 0 0
51 26.0 32.0 90.0 10.0 779 916 11 0 1 0 0 0 0 1 0 0 0
52 25.0 30.0 90.0 10.0 695 816 24 0 1 0 0 0 0 1 0 0 1
53 25.0 35.0 90.0 10.0 857 1024 9 0 1 0 0 0 1 0 0 0 0
54 44.0 5.0 90.0 20.0 221 412 93 0 0 0 0 0 1 0 0 0 0
55 42.0 10.0 90.0 40.0 96 347 86 0 0 1 0 0 0 1 0 0 1
56 42.0 15.0 90.0 10.0 35 233 42 0 0 0 0 0 1 0 0 0 0
57 40.0 5.0 90.0 30.0 347 474 66 0 0 0 0 0 0 0 0 0 1
58 40.0 15.0 90.0 40.0 35 172 72 1 0 1 0 0 0 0 0 0 0
59 38.0 5.0 90.0 30.0 403 602 18 0 0 0 0 1 1 0 0 0 1
60 38.0 15.0 90.0 10.0 521 870 43 1 0 0 0 0 1 1 0 0 0
61 35.0 5.0 90.0 20.0 487 704 23 0 1 0 0 0 1 0 0 0 0
62 50.0 30.0 90.0 10.0 422 719 70 1 1 0 0 0 0 0 0 0 0
63 50.0 35.0 90.0 20.0 217 362 6 0 0 0 0 0 0 0 0 1 0
64 50.0 40.0 90.0 50.0 142 247 67 1 0 0 0 0 0 0 1 0 0
65 48.0 30.0 90.0 10.0 567 758 46 0 0 0 1 1 0 0 0 0 0
66 48.0 40.0 90.0 10.0 34 171 14 0 0 0 1 0 1 0 0 0 0
67 47.0 35.0 90.0 10.0 794 907 94 0 0 0 0 1 0 0 0 0 0
68 47.0 40.0 90.0 10.0 12 226 64 0 0 0 1 0 1 0 1 0 0
69 45.0 30.0 90.0 10.0 716 795 57 0 0 0 1 0 0 0 0 0 0
70 45.0 35.0 90.0 10.0 873 1012 4 1 1 0 0 0 1 1 0 0 0
71 95.0 30.0 90.0 30.0 266 577 70 0 1 0 0 0 0 1 0 0 0
72 95.0 35.0 90.0 20.0 181 472 1 0 1 1 0 0 0 1 1 0 0
73 53.0 30.0 90.0 10.0 402 553 16 0 0 0 0 0 0 0 0 0 1
74 92.0 30.0 90.0 10.0 345 684 69 0 0 0 0 0 0 1 0 0 0
75 53.0 35.0 90.0 50.0 294 471 66 0 0 0 1 0 0 0 0 0 0
76 45.0 65.0 90.0 20.0 951 1114 32 0 0 0 1 0 0 1 0 0 1
77 90.0 35.0 90.0 10.0 153 310 34 0 0 1 1 0 0 0 1 0 0
78 88.0 30.0 90.0 10.0 450 767 39 0 0 0 1 1 0 0 0 0 0
79 88.0 35.0 90.0 20.0 50 237 49 0 0 0 0 0 0 0 0 0 1
80 87.0 30.0 90.0 10.0 567 832 69 0 0 0 0 0 1 0 0 0 1
81 85.0 25.0 90.0 10.0 713 876 86 1 1 0 0 0 0 0 1 1 0
82 85.0 35.0 90.0 30.0 47 331 54 0 0 1 1 1 1 0 0 1 0
83 75.0 55.0 90.0 20.0 311 478 84 1 1 0 0 0 0 0 0 0 0
84 72.0 55.0 90.0 10.0 127 476 35 0 0 0 0 0 1 0 0 0 0
85 70.0 58.0 90.0 20.0 349 632 50 1 0 1 0 1 0 0 1 0 1
86 68.0 60.0 90.0 30.0 476 691 57 0 0 1 0 1 1 0 0 0 0
87 66.0 55.0 90.0 10.0 67 344 75 0 1 1 0 0 0 0 1 0 0
88 65.0 55.0 90.0 20.0 25 256 49 0 0 1 0 0 0 0 0 0 0
89 65.0 60.0 90.0 30.0 546 807 17 1 0 0 0 0 0 0 0 0 0
90 63.0 58.0 90.0 10.0 630 909 86 0 0 0 0 1 0 0 0 0 0
91 60.0 55.0 90.0 10.0 20 293 39 1 0 0 0 0 1 0 0 1 0
92 60.0 60.0 90.0 10.0 769 956 17 0 1 0 0 0 1 0 0 0 0
93 67.0 85.0 90.0 20.0 229 580 34 0 1 1 1 0 1 0 0 0 0
94 65.0 85.0 90.0 40.0 442 551 76 0 0 0 0 0 0 0 1 0 0
95 65.0 82.0 90.0 10.0 227 394 70 0 0 1 0 1 0 1 0 0 0
96 62.0 80.0 90.0 30.0 163 272 8 0 0 0 0 1 0 1 0 1 0
97 60.0 80.0 90.0 10.0 36 291 89 0 1 0 0 0 1 0 0 1 0
98 60.0 85.0 90.0 30.0 469 714 79 0 0 1 0 1 0 0 0 0 0
99 58.0 75.0 90.0 20.0 30 227 60 0 0 0 0 0 0 0 1 0 1
100 55.0 80.0 90.0 10.0 595 968 61 0 0 1 0 0 0 0 0 0 0
101 55.0 85.0 90.0 20.0 493 880 86 0 1 0 0 1 1 1 0 0 0